(set-info :smt-lib-version 2.6)
(set-logic QF_LRA)
(set-info :source |
The Formal Verification of a Reintegration Protocol. Author: Lee Pike. Website: http://www.cs.indiana.edu/~lepike/pub_pages/emsoft.html.

This benchmark was automatically translated into SMT-LIB format from
CVC format using CVC Lite
|)
(set-info :category "industrial")
(set-info :status unsat)
(declare-fun x_0 () Real)
(declare-fun x_1 () Real)
(declare-fun x_2 () Bool)
(declare-fun x_3 () Bool)
(declare-fun x_4 () Bool)
(declare-fun x_5 () Bool)
(declare-fun x_6 () Real)
(declare-fun x_7 () Real)
(declare-fun x_8 () Real)
(declare-fun x_9 () Real)
(declare-fun x_10 () Real)
(declare-fun x_11 () Real)
(declare-fun x_12 () Bool)
(declare-fun x_13 () Bool)
(declare-fun x_14 () Bool)
(declare-fun x_15 () Bool)
(declare-fun x_16 () Bool)
(declare-fun x_17 () Bool)
(declare-fun x_18 () Bool)
(declare-fun x_19 () Bool)
(declare-fun x_20 () Real)
(declare-fun x_21 () Real)
(declare-fun x_22 () Real)
(declare-fun x_23 () Bool)
(declare-fun x_24 () Real)
(declare-fun x_25 () Real)
(declare-fun x_26 () Real)
(declare-fun x_27 () Real)
(declare-fun x_28 () Bool)
(declare-fun x_29 () Real)
(declare-fun x_30 () Bool)
(declare-fun x_31 () Bool)
(declare-fun x_32 () Bool)
(declare-fun x_33 () Bool)
(declare-fun x_34 () Bool)
(declare-fun x_35 () Bool)
(declare-fun x_36 () Real)
(declare-fun x_37 () Real)
(declare-fun x_38 () Real)
(declare-fun x_39 () Real)
(declare-fun x_40 () Bool)
(declare-fun x_41 () Bool)
(declare-fun x_42 () Bool)
(declare-fun x_43 () Bool)
(declare-fun x_44 () Bool)
(declare-fun x_45 () Real)
(declare-fun x_46 () Real)
(declare-fun x_47 () Real)
(declare-fun x_48 () Real)
(declare-fun x_49 () Real)
(declare-fun x_50 () Real)
(declare-fun x_51 () Real)
(declare-fun x_52 () Real)
(declare-fun x_53 () Real)
(declare-fun x_54 () Bool)
(declare-fun x_55 () Real)
(declare-fun x_56 () Real)
(declare-fun x_57 () Real)
(declare-fun x_58 () Real)
(declare-fun x_59 () Bool)
(declare-fun x_60 () Real)
(declare-fun x_61 () Bool)
(declare-fun x_62 () Bool)
(declare-fun x_63 () Bool)
(declare-fun x_64 () Bool)
(declare-fun x_65 () Bool)
(declare-fun x_66 () Bool)
(declare-fun x_67 () Real)
(declare-fun x_68 () Real)
(declare-fun x_69 () Real)
(declare-fun x_70 () Real)
(declare-fun x_71 () Bool)
(declare-fun x_72 () Bool)
(declare-fun x_73 () Bool)
(declare-fun x_74 () Bool)
(declare-fun x_75 () Bool)
(declare-fun x_76 () Real)
(declare-fun x_77 () Real)
(declare-fun x_78 () Real)
(declare-fun x_79 () Real)
(declare-fun x_80 () Real)
(declare-fun x_81 () Real)
(declare-fun x_82 () Real)
(declare-fun x_83 () Real)
(declare-fun x_84 () Real)
(declare-fun x_85 () Bool)
(declare-fun x_86 () Real)
(declare-fun x_87 () Real)
(declare-fun x_88 () Real)
(assert (let ((?v_3 (- x_0 x_1)) (?v_101 (+ x_1 x_9)) (?v_144 (<= x_0 x_27)) (?v_124 (= x_28 x_16)) (?v_76 (= x_29 0)) (?v_87 (< x_0 x_11)) (?v_109 (= x_27 x_0)) (?v_134 (= x_29 2)) (?v_136 (= x_30 x_5)) (?v_137 (and (= x_31 x_3) (= x_32 x_4))) (?v_122 (= x_33 x_19)) (?v_123 (and (= x_34 x_17) (= x_35 x_18))) (?v_138 (= x_36 x_8)) (?v_139 (and (= x_37 x_6) (= x_38 x_7))) (?v_96 (= x_39 x_11)) (?v_121 (= x_40 x_2)) (?v_119 (= x_41 x_15)) (?v_120 (and (= x_42 x_13) (= x_43 x_14))) (?v_140 (= x_44 x_12)) (?v_145 (- x_45 x_1)) (?v_77 (= x_29 1)) (?v_116 (+ x_9 x_1)) (?v_112 (<= x_24 x_27))) (let ((?v_118 (= x_30 (or x_5 (and ?v_112 x_15)))) (?v_105 (<= x_21 ?v_101)) (?v_107 (<= x_22 ?v_101)) (?v_104 (<= x_21 x_9)) (?v_106 (<= x_22 x_9)) (?v_81 (not x_3)) (?v_126 (< x_21 x_0)) (?v_127 (= x_27 x_21)) (?v_82 (not x_4)) (?v_129 (< x_22 x_0)) (?v_130 (= x_27 x_22)) (?v_83 (not x_5)) (?v_146 (not ?v_144)) (?v_98 (not x_13)) (?v_100 (not x_14)) (?v_102 (not x_15))) (let ((?v_97 (not ?v_104))) (let ((?v_110 (and ?v_97 (<= x_21 x_27))) (?v_99 (not ?v_106))) (let ((?v_111 (and ?v_99 (<= x_22 x_27)))) (let ((?v_117 (and (= x_31 (or x_3 (and ?v_110 x_13))) (= x_32 (or x_4 (and ?v_111 x_14))))) (?v_108 (<= x_24 ?v_101)) (?v_132 (< x_24 x_0)) (?v_133 (= x_27 x_24)) (?v_113 (not ?v_105)) (?v_114 (not ?v_107)) (?v_4 (not (<= x_24 x_9)))) (let ((?v_7 (and ?v_4 ?v_112)) (?v_6 (not (<= x_25 x_9)))) (let ((?v_8 (and ?v_6 (<= x_25 x_27))) (?v_115 (not ?v_108)) (?v_37 (+ x_1 x_27)) (?v_78 (<= x_45 x_58)) (?v_62 (= x_59 x_28)) (?v_21 (= x_60 0)) (?v_22 (< x_45 x_39)) (?v_46 (= x_58 x_45)) (?v_69 (= x_60 2)) (?v_71 (= x_61 x_30)) (?v_72 (and (= x_62 x_31) (= x_63 x_32))) (?v_60 (= x_64 x_33)) (?v_61 (and (= x_65 x_34) (= x_66 x_35))) (?v_73 (= x_67 x_36)) (?v_74 (and (= x_68 x_37) (= x_69 x_38))) (?v_32 (= x_70 x_39)) (?v_59 (= x_71 x_40)) (?v_57 (= x_72 x_41)) (?v_58 (and (= x_73 x_42) (= x_74 x_43))) (?v_75 (= x_75 x_44)) (?v_79 (- x_76 x_1)) (?v_50 (= x_60 1)) (?v_54 (+ x_27 x_1)) (?v_49 (<= x_55 x_58))) (let ((?v_56 (= x_61 (or x_30 (and ?v_49 x_41)))) (?v_39 (<= x_52 ?v_37)) (?v_41 (<= x_53 ?v_37)) (?v_38 (<= x_52 x_27)) (?v_40 (<= x_53 x_27)) (?v_34 (not x_31)) (?v_63 (< x_52 x_45)) (?v_64 (= x_58 x_52)) (?v_36 (not x_32)) (?v_65 (< x_53 x_45)) (?v_66 (= x_58 x_53)) (?v_25 (not x_30)) (?v_80 (not ?v_78)) (?v_43 (not x_42)) (?v_44 (not x_43)) (?v_45 (not x_41))) (let ((?v_33 (not ?v_38))) (let ((?v_47 (and ?v_33 (<= x_52 x_58))) (?v_35 (not ?v_40))) (let ((?v_48 (and ?v_35 (<= x_53 x_58)))) (let ((?v_55 (and (= x_62 (or x_31 (and ?v_47 x_42))) (= x_63 (or x_32 (and ?v_48 x_43))))) (?v_42 (<= x_55 ?v_37)) (?v_67 (< x_55 x_45)) (?v_68 (= x_58 x_55)) (?v_51 (not ?v_39)) (?v_52 (not ?v_41)) (?v_147 (not (<= x_55 x_27)))) (let ((?v_13 (and ?v_147 ?v_49)) (?v_148 (not (<= x_56 x_27)))) (let ((?v_14 (and ?v_148 (<= x_56 x_58))) (?v_53 (not ?v_42)) (?v_0 (= x_6 0)) (?v_1 (= x_7 0)) (?v_2 (= x_8 0)) (?v_95 (= x_36 0)) (?v_86 (= x_36 3)) (?v_91 (= x_37 0)) (?v_84 (= x_37 3)) (?v_93 (= x_38 0)) (?v_85 (= x_38 3)) (?v_31 (= x_67 0)) (?v_20 (= x_67 3)) (?v_27 (= x_68 0)) (?v_18 (= x_68 3)) (?v_29 (= x_69 0)) (?v_19 (= x_69 3)) (?v_142 (not x_2)) (?v_125 (not x_17)) (?v_128 (not x_18)) (?v_131 (not x_19)) (?v_141 (= x_20 0)) (?v_9 (and (not (<= x_26 x_9)) (<= x_26 x_27))) (?v_15 (and (not (<= x_57 x_27)) (<= x_57 x_58))) (?v_23 (= x_68 (ite ?v_34 (ite (and ?v_47 (< x_37 3)) (+ x_37 1) x_37) x_37))) (?v_24 (= x_69 (ite ?v_36 (ite (and ?v_48 (< x_38 3)) (+ x_38 1) x_38) x_38)))) (let ((?v_26 (or x_31 ?v_18)) (?v_28 (or x_32 ?v_19)) (?v_30 (or x_30 ?v_20)) (?v_103 (not x_44)) (?v_88 (= x_37 (ite ?v_81 (ite (and ?v_110 (< x_6 3)) (+ x_6 1) x_6) x_6))) (?v_89 (= x_38 (ite ?v_82 (ite (and ?v_111 (< x_7 3)) (+ x_7 1) x_7) x_7))) (?v_90 (or x_3 ?v_84)) (?v_92 (or x_4 ?v_85)) (?v_94 (or x_5 ?v_86)) (?v_143 (= x_20 1)) (?v_5 (ite ?v_7 2 1)) (?v_10 (ite ?v_7 3 2)) (?v_11 (ite ?v_7 1 0)) (?v_12 (ite ?v_13 2 1)) (?v_16 (ite ?v_13 3 2)) (?v_17 (ite ?v_13 1 0)) (?v_70 (<= (ite x_33 (ite x_35 (ite x_34 3 2) x_77) (ite x_35 x_77 (ite x_34 1 0))) (* (* (ite x_30 (ite x_32 (ite x_31 0 1) x_78) (ite x_32 x_78 (ite x_31 2 3))) 1) (/ 1 2)))) (?v_135 (<= (ite x_19 (ite x_18 (ite x_17 3 2) x_46) (ite x_18 x_46 (ite x_17 1 0))) (* (* (ite x_5 (ite x_4 (ite x_3 0 1) x_47) (ite x_4 x_47 (ite x_3 2 3))) 1) (/ 1 2))))) (and (and (and (and (and (and (and (and (and (and (and (and (and (and (and (and (and (and (and (and (and (and (and (and (and (and (and (and (and (and (and (and (and (and (and (and (and (and (and (and (and (and (and (and (and (and (and (and (and (and (and (and (and (and (and (and (and (and (and (and (and (and (and (and (and (and (and (and (and (and (and (and (and (and (and (and (and (and (and (and (and (and (and (and (and (and (and (and (and (and (and (and (and (and (and (and (and (and (and (and (and (and (and (and (and (and (and (and (and (and (and (and (and (and (<= x_60 2) (>= x_60 0)) (<= x_29 2)) (>= x_29 0)) (<= x_20 2)) (>= x_20 0)) (>= x_0 0)) (> x_1 0)) (>= x_1 0)) (or (or (or ?v_0 (= x_6 1)) (= x_6 2)) (= x_6 3))) (not (< x_6 0))) (<= x_6 3)) (or (or (or ?v_1 (= x_7 1)) (= x_7 2)) (= x_7 3))) (not (< x_7 0))) (<= x_7 3)) (or (or (or ?v_2 (= x_8 1)) (= x_8 2)) (= x_8 3))) (not (< x_8 0))) (<= x_8 3)) (>= x_9 0)) (not (<= x_10 (* x_1 3)))) (>= x_10 0)) (>= x_11 0)) (>= x_21 0)) (>= x_22 0)) (>= x_24 0)) (>= x_25 0)) (>= x_26 0)) (>= x_27 0)) (or (or (or ?v_95 (= x_36 1)) (= x_36 2)) ?v_86)) (not (< x_36 0))) (<= x_36 3)) (or (or (or ?v_91 (= x_37 1)) (= x_37 2)) ?v_84)) (not (< x_37 0))) (<= x_37 3)) (or (or (or ?v_93 (= x_38 1)) (= x_38 2)) ?v_85)) (not (< x_38 0))) (<= x_38 3)) (>= x_39 0)) (>= x_45 0)) (>= x_52 0)) (>= x_53 0)) (>= x_55 0)) (>= x_56 0)) (>= x_57 0)) (>= x_58 0)) (or (or (or ?v_31 (= x_67 1)) (= x_67 2)) ?v_20)) (not (< x_67 0))) (<= x_67 3)) (or (or (or ?v_27 (= x_68 1)) (= x_68 2)) ?v_18)) (not (< x_68 0))) (<= x_68 3)) (or (or (or ?v_29 (= x_69 1)) (= x_69 2)) ?v_19)) (not (< x_69 0))) (<= x_69 3)) (>= x_70 0)) (>= x_76 0)) (>= x_83 0)) (>= x_84 0)) (>= x_86 0)) (>= x_87 0)) (>= x_88 0)) ?v_142) ?v_81) ?v_82) ?v_83) ?v_0) ?v_1) ?v_2) (not (< x_9 0))) (< x_9 x_10)) (= x_11 (+ (+ x_9 x_10) x_1))) x_12) ?v_98) ?v_100) ?v_102) x_16) ?v_125) ?v_128) ?v_131) ?v_141) (not (<= x_0 x_21))) (not (<= x_21 ?v_3))) (not (<= x_0 x_22))) (not (<= x_22 ?v_3))) (= x_0 (ite (not (< x_9 x_1)) (+ x_10 x_1) x_1))) (not x_23)) ?v_4) ?v_6) (< x_24 x_25)) (< x_25 x_26)) (= x_46 (ite x_17 2 1))) (= x_47 (ite x_3 1 2))) (= x_48 ?v_5)) (= x_49 ?v_5)) (= x_50 (+ (ite ?v_9 (ite ?v_8 ?v_10 x_48) (ite ?v_8 x_48 ?v_11)) x_8))) (= x_51 (+ (ite ?v_9 (ite ?v_8 ?v_10 x_49) (ite ?v_8 x_49 ?v_11)) x_8))) (= x_77 (ite x_34 2 1))) (= x_78 (ite x_31 1 2))) (= x_79 ?v_12)) (= x_80 ?v_12)) (= x_81 (+ (ite ?v_15 (ite ?v_14 ?v_16 x_79) (ite ?v_14 x_79 ?v_17)) x_36))) (= x_82 (+ (ite ?v_15 (ite ?v_14 ?v_16 x_80) (ite ?v_14 x_80 ?v_17)) x_36))) (or (or (and (and (and (and (and (and (or (and (and (and (and (and (and (and (and (and (and ?v_21 ?v_22) ?v_46) ?v_23) ?v_24) (= x_67 (ite ?v_25 (ite (not (< x_81 3)) 3 x_81) x_36))) (= x_62 ?v_26)) (= x_63 ?v_28)) (= x_61 ?v_30)) ?v_59) ?v_32) (and (and (and (and (and (and (and (and (and (and ?v_21 (not ?v_22)) x_71) (= x_58 x_39)) ?v_23) ?v_24) (= x_67 (ite ?v_25 (ite (not (< x_82 3)) 3 x_82) x_36))) (= x_62 (or ?v_26 ?v_27))) (= x_63 (or ?v_28 ?v_29))) (= x_61 (or ?v_30 ?v_31))) ?v_32)) ?v_57) ?v_58) ?v_75) ?v_60) ?v_61) ?v_62) (and (and (and (and (and (and (and (or (and (and (and (and (and (and (and (and (and (and (and ?v_50 (or (or (and (and (and ?v_33 ?v_34) ?v_43) ?v_39) (and (and (and ?v_35 ?v_36) ?v_44) ?v_41)) (and (and ?v_25 ?v_45) ?v_42))) (not x_75)) (or (or (or (or ?v_38 ?v_51) x_42) x_31) (not (< x_58 x_52)))) (or (or (or (or ?v_40 ?v_52) x_43) x_32) (not (< x_58 x_53)))) (or (or (or ?v_53 x_41) x_30) (not (< x_58 x_55)))) (or (or (or (and (and (and (and ?v_43 ?v_34) ?v_39) ?v_63) ?v_64) (and (and (and (and ?v_44 ?v_36) ?v_41) ?v_65) ?v_66)) (and (and (and (and ?v_45 ?v_25) ?v_42) ?v_67) ?v_68)) (and (< x_45 ?v_54) ?v_46))) (= x_73 (or x_42 ?v_47))) (= x_74 (or x_43 ?v_48))) (= x_72 (or x_41 ?v_49))) ?v_55) ?v_56) (and (and (and (and (and (and (and (and (and ?v_50 (or (or (or ?v_38 x_42) x_31) ?v_51)) (or (or (or ?v_40 x_43) x_32) ?v_52)) (or (or x_41 x_30) ?v_53)) x_75) (= x_58 ?v_54)) ?v_55) ?v_56) ?v_57) ?v_58)) ?v_73) ?v_74) ?v_32) ?v_59) ?v_60) ?v_61) ?v_62)) (and (and (and (and (and (and (and (or (and (and (and (and (and (and (and (and (and (and (and ?v_69 ?v_70) (not x_59)) (or (or (or ?v_38 x_34) x_31) (<= x_58 x_52))) (or (or (or ?v_40 x_35) x_32) (<= x_58 x_53))) (or (or x_33 x_30) (<= x_58 x_55))) (or (or (or (and (and (and (and (not x_34) ?v_34) (< x_27 x_52)) ?v_63) ?v_64) (and (and (and (and (not x_35) ?v_36) (< x_27 x_53)) ?v_65) ?v_66)) (and (and (and (not x_33) ?v_25) ?v_67) ?v_68)) ?v_46)) (= x_65 (or x_34 (= x_52 x_58)))) (= x_66 (or x_35 (= x_53 x_58)))) (= x_64 (or x_33 (= x_55 x_58)))) ?v_71) ?v_72) (and (and (and (and (and (and (and ?v_69 (not ?v_70)) x_59) ?v_71) ?v_72) (= x_58 x_27)) ?v_60) ?v_61)) ?v_73) ?v_74) ?v_32) ?v_59) ?v_57) ?v_58) ?v_75))) (or (or (and ?v_76 (= x_60 (ite (not x_40) x_29 1))) (and ?v_77 (= x_60 (ite ?v_103 x_29 2)))) (and (and (not ?v_76) (not ?v_77)) (= x_60 x_29)))) (or (and (and ?v_78 (not (<= x_76 x_83))) (not (<= x_83 ?v_79))) (and ?v_80 (= x_83 x_52)))) (or (and (and ?v_78 (not (<= x_76 x_84))) (not (<= x_84 ?v_79))) (and ?v_80 (= x_84 x_53)))) (or (and (and ?v_78 (= x_76 (+ x_45 x_10))) x_85) (and (and ?v_80 (not x_85)) (= x_76 x_45)))) (or (and (and (and (and ?v_49 (not (<= x_86 x_58))) (not (<= x_87 x_58))) (< x_86 x_87)) (< x_87 x_88)) (and (and (and (not ?v_49) (= x_86 x_55)) (= x_87 x_56)) (= x_88 x_57)))) (or (or (and (and (and (and (and (and (or (and (and (and (and (and (and (and (and (and (and ?v_76 ?v_87) ?v_109) ?v_88) ?v_89) (= x_36 (ite ?v_83 (ite (not (< x_50 3)) 3 x_50) x_8))) (= x_31 ?v_90)) (= x_32 ?v_92)) (= x_30 ?v_94)) ?v_121) ?v_96) (and (and (and (and (and (and (and (and (and (and ?v_76 (not ?v_87)) x_40) (= x_27 x_11)) ?v_88) ?v_89) (= x_36 (ite ?v_83 (ite (not (< x_51 3)) 3 x_51) x_8))) (= x_31 (or ?v_90 ?v_91))) (= x_32 (or ?v_92 ?v_93))) (= x_30 (or ?v_94 ?v_95))) ?v_96)) ?v_119) ?v_120) ?v_140) ?v_122) ?v_123) ?v_124) (and (and (and (and (and (and (and (or (and (and (and (and (and (and (and (and (and (and (and ?v_77 (or (or (and (and (and ?v_97 ?v_81) ?v_98) ?v_105) (and (and (and ?v_99 ?v_82) ?v_100) ?v_107)) (and (and ?v_83 ?v_102) ?v_108))) ?v_103) (or (or (or (or ?v_104 ?v_113) x_13) x_3) (not (< x_27 x_21)))) (or (or (or (or ?v_106 ?v_114) x_14) x_4) (not (< x_27 x_22)))) (or (or (or ?v_115 x_15) x_5) (not (< x_27 x_24)))) (or (or (or (and (and (and (and ?v_98 ?v_81) ?v_105) ?v_126) ?v_127) (and (and (and (and ?v_100 ?v_82) ?v_107) ?v_129) ?v_130)) (and (and (and (and ?v_102 ?v_83) ?v_108) ?v_132) ?v_133)) (and (< x_0 ?v_116) ?v_109))) (= x_42 (or x_13 ?v_110))) (= x_43 (or x_14 ?v_111))) (= x_41 (or x_15 ?v_112))) ?v_117) ?v_118) (and (and (and (and (and (and (and (and (and ?v_77 (or (or (or ?v_104 x_13) x_3) ?v_113)) (or (or (or ?v_106 x_14) x_4) ?v_114)) (or (or x_15 x_5) ?v_115)) x_44) (= x_27 ?v_116)) ?v_117) ?v_118) ?v_119) ?v_120)) ?v_138) ?v_139) ?v_96) ?v_121) ?v_122) ?v_123) ?v_124)) (and (and (and (and (and (and (and (or (and (and (and (and (and (and (and (and (and (and (and ?v_134 ?v_135) (not x_28)) (or (or (or ?v_104 x_17) x_3) (<= x_27 x_21))) (or (or (or ?v_106 x_18) x_4) (<= x_27 x_22))) (or (or x_19 x_5) (<= x_27 x_24))) (or (or (or (and (and (and (and ?v_125 ?v_81) (< x_9 x_21)) ?v_126) ?v_127) (and (and (and (and ?v_128 ?v_82) (< x_9 x_22)) ?v_129) ?v_130)) (and (and (and ?v_131 ?v_83) ?v_132) ?v_133)) ?v_109)) (= x_34 (or x_17 (= x_21 x_27)))) (= x_35 (or x_18 (= x_22 x_27)))) (= x_33 (or x_19 (= x_24 x_27)))) ?v_136) ?v_137) (and (and (and (and (and (and (and ?v_134 (not ?v_135)) x_28) ?v_136) ?v_137) (= x_27 x_9)) ?v_122) ?v_123)) ?v_138) ?v_139) ?v_96) ?v_121) ?v_119) ?v_120) ?v_140))) (or (or (and ?v_141 (= x_29 (ite ?v_142 x_20 1))) (and ?v_143 (= x_29 (ite (not x_12) x_20 2)))) (and (and (not ?v_141) (not ?v_143)) (= x_29 x_20)))) (or (and (and ?v_144 (not (<= x_45 x_52))) (not (<= x_52 ?v_145))) (and ?v_146 (= x_52 x_21)))) (or (and (and ?v_144 (not (<= x_45 x_53))) (not (<= x_53 ?v_145))) (and ?v_146 (= x_53 x_22)))) (or (and (and ?v_144 (= x_45 (+ x_0 x_10))) x_54) (and (and ?v_146 (not x_54)) (= x_45 x_0)))) (or (and (and (and (and ?v_112 ?v_147) ?v_148) (< x_55 x_56)) (< x_56 x_57)) (and (and (and (not ?v_112) (= x_55 x_24)) (= x_56 x_25)) (= x_57 x_26)))) (or (or (or (or (or (or (or (or (or (or (or (not (< x_58 x_76)) (not (< x_58 x_86))) (not (< x_58 x_87))) (not (< x_58 x_88))) (not (< x_27 x_45))) (not (< x_27 x_55))) (not (< x_27 x_56))) (not (< x_27 x_57))) (not (< x_9 x_0))) (not (< x_9 x_24))) (not (< x_9 x_25))) (not (< x_9 x_26)))))))))))))))))))))
(check-sat)
(exit)
